001 001 000 002 001 001 001 001 000 000 000 000 002 003 002 001 002 002 002 002 003 006 006 004 002 003 002 001 003 -99 002
001 000 000 000 000 001 001 001 001 000 001 001 001 002 001 001 001 002 001 003 003 004 004 002 001 002 003 002 003 006 -99
001 001 001 000 000 001 002 001 001 001 001 001 001 001 001 001 001 001 001 002 004 002 004 002 001 002 003 002 002 005 -99
001 001 001 001 001 000 001 002 001 001 002 001 001 001 001 001 001 000 001 001 003 002 002 002 001 001 003 003 003 006 010
001 001 001 001 000 001 001 001 002 002 004 001 001 000 001 000 001 001 002 000 002 002 002 002 002 002 003 005 005 -99 010
002 002 001 001 000 000 001 001 001 001 003 001 002 001 001 001 001 001 001 001 001 002 001 003 003 004 003 006 006 -99 012
001 002 001 001 001 001 001 001 002 002 002 002 001 001 000 001 001 002 002 002 001 001 001 003 006 005 004 -99 018 017 013
000 002 002 001 000 001 001 001 002 002 002 002 001 001 001 002 002 002 001 002 002 002 001 003 007 008 010 024 021 016 013
000 001 003 002 001 001 002 002 002 002 002 001 001 000 001 001 002 002 002 001 001 003 004 007 009 007 030 029 030 018 015
001 002 004 003 003 003 002 002 002 001 001 001 001 000 001 001 001 001 001 002 001 004 009 014 017 007 011 024 025 011 013
000 002 004 003 003 003 002 002 002 001 001 001 001 001 001 001 001 001 002 002 001 001 007 018 020 013 010 019 015 013 015
001 002 003 002 002 003 002 001 001 002 002 001 002 001 002 002 002 002 001 002 001 000 006 021 026 015 011 017 013 017 014
001 002 002 001 002 004 001 001 001 002 002 002 002 002 002 002 002 002 002 001 001 001 006 008 035 013 007 015 024 019 010
001 001 001 002 003 004 003 002 001 002 002 003 002 002 001 001 001 001 001 001 001 001 -99 008 014 014 006 016 034 020 008
002 001 001 002 009 006 004 005 004 003 002 002 001 002 001 001 001 001 001 001 001 001 -99 005 008 012 005 012 023 015 005
001 001 002 004 018 011 007 004 004 003 002 002 002 002 001 001 001 001 001 001 001 001 004 006 006 007 005 012 017 007 007
002 001 001 003 018 010 007 004 003 003 002 002 002 002 002 001 001 001 001 002 002 001 004 005 004 003 004 007 015 006 005
002 001 002 002 003 009 009 011 010 010 005 002 002 001 002 001 001 000 000 000 003 001 003 004 002 002 002 006 014 011 004
001 002 002 002 002 007 006 013 009 011 006 003 001 001 001 001 001 001 000 000 001 000 002 004 003 003 005 006 012 013 004
001 002 002 002 002 004 004 004 004 006 005 003 001 001 001 000 000 000 000 000 000 000 000 -99 -99 003 004 005 -99 008 006
002 002 002 003 002 003 002 003 004 005 004 002 001 001 000 000 000 000 000 000 000 000 000 -99 -99 -99 003 -99 -99 -99 -99
002 002 002 003 004 004 003 004 006 007 004 003 001 002 000 000 000 000 000 000 000 000 000 -99 -99 -99 -99 -99 -99 -99 -99
005 004 003 003 004 004 004 005 007 008 006 005 003 003 001 001 001 000 000 000 000 000 000 -99 -99 -99 -99 -99 -99 -99 -99
005 006 005 003 002 003 004 006 006 005 006 006 006 004 002 003 001 000 000 000 000 000 000 -99 -99 -99 -99 -99 -99 -99 001
006 006 006 004 003 006 008 009 006 006 010 008 009 003 003 003 001 000 000 000 000 000 000 -99 -99 -99 -99 -99 -99 -99 001
007 007 003 005 004 006 005 004 005 011 009 012 011 002 003 004 002 000 000 000 000 000 000 -99 -99 -99 -99 -99 -99 001 001
009 006 003 005 003 002 002 004 007 015 012 010 010 004 003 005 010 001 001 002 001 000 000 -99 -99 -99 -99 -99 -99 001 001
005 004 003 004 002 002 004 006 011 029 020 016 012 002 003 008 003 002 004 004 001 002 005 -99 -99 -99 -99 -99 -99 003 002
009 006 003 003 002 002 004 004 014 041 037 020 015 004 006 010 003 005 005 008 002 006 015 015 -99 011 013 -99 006 004 004
008 005 007 004 002 002 004 011 035 054 046 029 015 006 006 004 004 005 006 008 003 011 023 011 008 015 016 010 006 007 005
006 004 005 005 005 004 007 017 035 039 034 038 023 013 006 013 011 006 009 009 004 011 028 013 006 011 014 010 007 010 006
004 004 005 006 006 007 010 014 026 048 035 034 034 018 016 015 015 009 006 008 009 015 024 009 006 007 010 005 004 010 005
004 003 004 007 005 005 007 015 018 021 019 025 036 028 013 020 011 006 005 006 007 009 019 006 004 002 007 002 003 001 003
005 003 004 006 005 007 017 017 016 012 017 016 044 040 029 010 005 004 003 005 004 006 010 006 002 001 001 000 000 000 000
002 004 007 008 014 016 013 027 009 008 013 016 031 040 033 020 005 005 001 001 002 003 002 002 002 001 000 000 000 000 000
002 003 004 007 020 017 011 011 009 009 011 015 022 029 026 013 011 005 001 001 001 001 000 000 001 000 000 000 000 000 001
001 003 006 011 007 008 006 010 017 024 008 008 018 012 026 016 010 003 003 001 000 000 000 000 001 000 000 000 000 000 000
001 003 004 004 005 005 004 012 009 010 007 004 003 004 004 004 006 003 009 004 000 000 000 000 000 000 000 000 000 000 000
000 002 006 004 004 005 010 015 010 010 007 002 003 003 002 002 001 002 006 005 001 001 000 000 000 000 000 000 000 000 000
000 000 004 003 003 005 014 009 004 010 006 002 002 002 002 001 000 001 002 006 003 001 000 000 000 000 000 000 000 000 000
002 001 000 001 001 003 005 003 005 004 002 001 001 000 001 000 000 001 005 003 002 002 003 001 000 000 000 000 000 -99 000
001 001 000 000 000 000 001 001 000 001 001 001 000 000 000 000 000 001 002 002 003 002 005 002 000 001 000 000 001 000 000
000 000 000 001 001 000 000 000 000 001 000 000 000 000 000 000 000 000 000 001 008 005 004 007 004 001 000 001 002 001 003
000 000 000 000 000 000 000 000 000 000 000 001 000 000 000 000 000 000 000 005 010 005 018 034 007 002 004 017 004 006 005
000 000 000 000 000 000 000 000 000 000 000 000 000 000 000 000 000 000 000 003 006 003 026 044 006 003 010 021 008 010 010
000 000 000 000 000 000 000 000 000 000 000 000 000 000 000 000 000 000 000 001 002 005 042 023 004 004 013 035 013 014 010
000 000 000 000 000 000 000 000 000 000 000 000 000 000 000 000 000 000 000 000 001 002 013 009 007 012 029 046 009 011 010
001 001 001 001 000 000 000 000 000 000 000 000 000 000 000 000 000 000 000 000 000 001 004 003 017 029 038 025 010 011 009
004 003 002 001 001 000 000 000 000 000 000 000 000 000 000 000 000 000 000 000 000 000 000 006 015 060 040 017 010 012 010
007 010 004 005 002 001 001 000 000 000 000 000 000 000 000 000 000 000 000 000 000 000 000 002 014 064 025 015 008 014 009
007 011 007 006 003 004 001 000 000 000 000 000 000 000 000 000 001 000 000 000 000 000 000 001 011 012 009 006 016 016 014
003 007 005 003 003 005 001 000 001 000 000 -99 -99 -99 -99 000 001 000 000 000 000 -99 000 002 005 005 003 004 014 022 030
002 004 002 002 005 004 002 002 002 001 000 000 000 -99 000 000 000 000 000 000 000 000 000 000 002 002 002 004 009 012 021
001 001 001 001 004 002 001 003 005 004 001 001 000 000 001 000 000 000 000 000 000 000 -99 000 000 001 002 004 012 016 009
000 000 000 000 000 000 001 003 008 008 006 002 000 003 006 002 001 000 000 000 000 -99 000 000 001 002 002 004 024 008 007
